objective value:                           -6348.9361
x2                                                  1 	(obj:-250.445)
x4                                                  1 	(obj:-329.762)
x62                                                 1 	(obj:-312.159)
x67                                                 1 	(obj:-270.655)
x95                                                 1 	(obj:-677.018)
x101                                                1 	(obj:-157.72)
x112                                                1 	(obj:-903.121)
x115                                                1 	(obj:-185.595)
x142                                                1 	(obj:-77.7695)
x148                                                1 	(obj:-210.96)
x234                                                1 	(obj:-37.0029)
x288                                                1 	(obj:-91.6002)
x301                                                1 	(obj:-149.849)
x309                                                1 	(obj:-93.0668)
x311                                                1 	(obj:-525.048)
x328                                                1 	(obj:-136.229)
x329                                                1 	(obj:-112.937)
x330                                                1 	(obj:-13.9407)
x332                                                1 	(obj:-803.892)
x368                                                1 	(obj:-157.12)
x451                                                1 	(obj:-154.218)
x463                                                1 	(obj:-274.572)
x492                                                1 	(obj:-424.256)
